============================[ Problem Statistics ]=============================|                                                                             ||  Number of variables:          4242                                         ||  Number of clauses:            9659                                         ||  Parse time:                   0.07 s                                       ||                                                                             |============================[ Search Statistics ]==============================| Conflicts |          ORIGINAL         |          LEARNT          | Progress ||           |    Vars  Clauses Literals |    Limit  Clauses Lit/Cl |          |==============================================================================================================================================================restarts              : 1conflicts             : 41             (461 /sec)decisions             : 127            (0.00 % random) (1427 /sec)propagations          : 8104           (91056 /sec)conflict literals     : 1611           (95.79 % deleted)CPU time              : 0.089 sSATISFIABLE